instances/shortest_path/discrete_knapsack_uncertainty/nohadani_5_20.kp
58361
99

[4.902712400834691 0.8291564196196782 4.387832375986825 1.7461584177688654 4.668427265496425 0.6191893814746757 3.2346986894345555 4.087800318037461 2.565162509241238 3.8040739851106746 4.692757211310265 2.695736602489082 6.029789350879066 3.3197580617660667 4.6442748525789765 0.4579010821268358]

[41 18 84 37 2 99 95 13 75 12 37 93 86 74 74 54]
